Maximize
	+ 4 x1 - 1 x2 - 3 x3 - 2 x6 
Maximize
	+ 2 x1 - 2 x2 + 2 x3 + 6 x4 + 6 x5 + 1 x6 
Maximize
	- 3 x1 + 4 x3 + 5 x4 + 2 x5 + 2 x6 
Subject To
	+ 5 x1 - 4 x2 + 2 x3 - 2 x5 + 6 x6 <= 7
Bounds
	0 <= x1 <= 4
	0 <= x2 <= 4
	0 <= x3 <= 4
	0 <= x4 <= 4
	0 <= x5 <= 4
	0 <= x6 <= 4
Integers
	x1 x2 x3 x4 x5 x6 
End